c description: Random 3-CNF over 14 variables and 42 clauses
p cnf 14 42
3 -6 9 0
2 -8 -9 0
-7 12 13 0
-5 -11 13 0
-6 10 13 0
5 -9 -12 0
5 6 13 0
-3 4 13 0
3 -7 13 0
1 3 -10 0
6 9 -13 0
6 -7 -9 0
-5 -10 -13 0
1 -3 14 0
1 -8 14 0
-5 -12 14 0
-11 12 -13 0
4 -6 -7 0
6 8 11 0
3 13 -14 0
2 9 -13 0
3 10 11 0
2 7 14 0
-10 12 14 0
2 10 11 0
6 -9 -11 0
2 5 -12 0
-6 11 -14 0
-3 -6 -10 0
-1 -4 -12 0
3 -7 -11 0
-2 -6 8 0
-3 10 12 0
-6 -7 -9 0
-2 4 -5 0
-4 -6 -12 0
6 -7 -8 0
-1 3 8 0
-4 8 10 0
-8 -11 -14 0
-4 8 -13 0
1 -5 -7 0